job_count = 16 ;
duration = [|15, 6|2, 6|6, 4|2, 3|11, 8|8, 2|18, 5|10, 1|7, 5|10, 1|9, 9|7, 5|2, 3|17, 7|10, 2|18, 3|] ;
machine_count = 2 ;
cost = [|17, 30|13, 32|12, 29|10, 25|14, 23|17, 38|13, 26|16, 21|18, 21|11, 28|11, 21|17, 35|18, 35|13, 22|18, 28|19, 31|] ;
deadline = [40, 40, 40, 40, 40, 40, 40, 40, 40, 40, 40, 40, 40, 40, 40, 40] ;
release = [0, 0, 0, 0, 0, 0, 0, 0, 0, 0, 0, 0, 0, 0, 0, 0] ;
resource = [|6, 6|8, 8|7, 7|5, 5|9, 9|5, 5|6, 6|6, 6|6, 6|8, 8|3, 3|5, 5|8, 8|3, 3|7, 7|2, 2|] ;
capacities = [10, 10] ;
